33	15.0	170.0	24204012
33	20.0	190.0	29203713
33	25.0	250.0	28692944
33	30.0	290.0	28175906
33	35.0	350.0	27822530
33	40.0	390.0	27410004
33	45.0	380.0	27017184
33	50.0	420.0	26613707
33	55.0	430.0	26283289
33	60.0	450.0	25958329
33	65.0	460.0	25661321
33	70.0	480.0	25391876
33	75.0	490.0	25164106
33	80.0	520.0	24947849
33	85.0	530.0	24763126
33	90.0	530.0	24572501
33	95.0	570.0	24426246
33	100.0	560.0	24298645
33	105.0	580.0	24173854
33	110.0	600.0	24047102
